\* ACPM *\
Minimize
OBJ: 5 x_10_1 + 6.5 x_10_2 + 9 x_10_3 + 7 x_10_4 + 2 x_10_5 + 0.5 x_10_6
 + 0.5 x_10_7 + 4.5 x_10_8 + 9.5 x_10_9 + 5 x_1_10 + x_1_2 + 4 x_1_3
 + 9.5 x_1_4 + 6.5 x_1_5 + 8.5 x_1_6 + 8.5 x_1_7 + 3.5 x_1_8 + 4.5 x_1_9
 + x_2_1 + 6.5 x_2_10 + 0.5 x_2_3 + 6.5 x_2_4 + 9 x_2_5 + 2.5 x_2_6 + 8 x_2_7
 + 1.5 x_2_8 + 4 x_2_9 + 4 x_3_1 + 9 x_3_10 + 0.5 x_3_2 + 6.5 x_3_4 + 5 x_3_5
 + 6.5 x_3_6 + 2.5 x_3_7 + 2 x_3_8 + 10 x_3_9 + 9.5 x_4_1 + 7 x_4_10
 + 6.5 x_4_2 + 6.5 x_4_3 + 2 x_4_5 + 8.5 x_4_6 + 9 x_4_7 + 4.5 x_4_8
 + 4.5 x_4_9 + 6.5 x_5_1 + 2 x_5_10 + 9 x_5_2 + 5 x_5_3 + 2 x_5_4 + 0.5 x_5_6
 + 5.5 x_5_7 + 5 x_5_8 + 7.5 x_5_9 + 8.5 x_6_1 + 0.5 x_6_10 + 2.5 x_6_2
 + 6.5 x_6_3 + 8.5 x_6_4 + 0.5 x_6_5 + 2.5 x_6_7 + x_6_8 + 10 x_6_9
 + 8.5 x_7_1 + 0.5 x_7_10 + 8 x_7_2 + 2.5 x_7_3 + 9 x_7_4 + 5.5 x_7_5
 + 2.5 x_7_6 + 7.5 x_7_8 + 9 x_7_9 + 3.5 x_8_1 + 4.5 x_8_10 + 1.5 x_8_2
 + 2 x_8_3 + 4.5 x_8_4 + 5 x_8_5 + x_8_6 + 7.5 x_8_7 + 2 x_8_9 + 4.5 x_9_1
 + 9.5 x_9_10 + 4 x_9_2 + 10 x_9_3 + 4.5 x_9_4 + 7.5 x_9_5 + 10 x_9_6
 + 9 x_9_7 + 2 x_9_8
Subject To
_C1: x_1_2 - x_2_1 = 0
_C10: - x_1_2 + x_2_1 = 0
_C100: - f_10_3_7 - f_1_3_7 - f_2_3_7 + f_3_10_7 + f_3_1_7 + f_3_2_7 + f_3_4_7
 + f_3_5_7 + f_3_6_7 + f_3_7_7 + f_3_8_7 + f_3_9_7 - f_4_3_7 - f_5_3_7
 - f_6_3_7 - f_7_3_7 - f_8_3_7 - f_9_3_7 = 0
_C101: - f_10_4_7 - f_1_4_7 - f_2_4_7 - f_3_4_7 + f_4_10_7 + f_4_1_7 + f_4_2_7
 + f_4_3_7 + f_4_5_7 + f_4_6_7 + f_4_7_7 + f_4_8_7 + f_4_9_7 - f_5_4_7
 - f_6_4_7 - f_7_4_7 - f_8_4_7 - f_9_4_7 = 0
_C102: - f_10_5_7 - f_1_5_7 - f_2_5_7 - f_3_5_7 - f_4_5_7 + f_5_10_7 + f_5_1_7
 + f_5_2_7 + f_5_3_7 + f_5_4_7 + f_5_6_7 + f_5_7_7 + f_5_8_7 + f_5_9_7
 - f_6_5_7 - f_7_5_7 - f_8_5_7 - f_9_5_7 = 0
_C103: - f_10_6_7 - f_1_6_7 - f_2_6_7 - f_3_6_7 - f_4_6_7 - f_5_6_7 + f_6_10_7
 + f_6_1_7 + f_6_2_7 + f_6_3_7 + f_6_4_7 + f_6_5_7 + f_6_7_7 + f_6_8_7
 + f_6_9_7 - f_7_6_7 - f_8_6_7 - f_9_6_7 = 0
_C104: - f_10_8_7 - f_1_8_7 - f_2_8_7 - f_3_8_7 - f_4_8_7 - f_5_8_7 - f_6_8_7
 - f_7_8_7 + f_8_10_7 + f_8_1_7 + f_8_2_7 + f_8_3_7 + f_8_4_7 + f_8_5_7
 + f_8_6_7 + f_8_7_7 + f_8_9_7 - f_9_8_7 = 0
_C105: - f_10_9_7 - f_1_9_7 - f_2_9_7 - f_3_9_7 - f_4_9_7 - f_5_9_7 - f_6_9_7
 - f_7_9_7 - f_8_9_7 + f_9_10_7 + f_9_1_7 + f_9_2_7 + f_9_3_7 + f_9_4_7
 + f_9_5_7 + f_9_6_7 + f_9_7_7 + f_9_8_7 = 0
_C106: f_10_1_7 + f_10_2_7 + f_10_3_7 + f_10_4_7 + f_10_5_7 + f_10_6_7
 + f_10_7_7 + f_10_8_7 + f_10_9_7 - f_1_10_7 - f_2_10_7 - f_3_10_7 - f_4_10_7
 - f_5_10_7 - f_6_10_7 - f_7_10_7 - f_8_10_7 - f_9_10_7 = 0
_C107: - f_10_2_5 - f_1_2_5 + f_2_10_5 + f_2_1_5 + f_2_3_5 + f_2_4_5 + f_2_5_5
 + f_2_6_5 + f_2_7_5 + f_2_8_5 + f_2_9_5 - f_3_2_5 - f_4_2_5 - f_5_2_5
 - f_6_2_5 - f_7_2_5 - f_8_2_5 - f_9_2_5 = 0
_C108: - f_10_3_5 - f_1_3_5 - f_2_3_5 + f_3_10_5 + f_3_1_5 + f_3_2_5 + f_3_4_5
 + f_3_5_5 + f_3_6_5 + f_3_7_5 + f_3_8_5 + f_3_9_5 - f_4_3_5 - f_5_3_5
 - f_6_3_5 - f_7_3_5 - f_8_3_5 - f_9_3_5 = 0
_C109: - f_10_4_5 - f_1_4_5 - f_2_4_5 - f_3_4_5 + f_4_10_5 + f_4_1_5 + f_4_2_5
 + f_4_3_5 + f_4_5_5 + f_4_6_5 + f_4_7_5 + f_4_8_5 + f_4_9_5 - f_5_4_5
 - f_6_4_5 - f_7_4_5 - f_8_4_5 - f_9_4_5 = 0
_C11: x_2_3 - x_3_2 = 0
_C110: - f_10_6_5 - f_1_6_5 - f_2_6_5 - f_3_6_5 - f_4_6_5 - f_5_6_5 + f_6_10_5
 + f_6_1_5 + f_6_2_5 + f_6_3_5 + f_6_4_5 + f_6_5_5 + f_6_7_5 + f_6_8_5
 + f_6_9_5 - f_7_6_5 - f_8_6_5 - f_9_6_5 = 0
_C111: - f_10_7_5 - f_1_7_5 - f_2_7_5 - f_3_7_5 - f_4_7_5 - f_5_7_5 - f_6_7_5
 + f_7_10_5 + f_7_1_5 + f_7_2_5 + f_7_3_5 + f_7_4_5 + f_7_5_5 + f_7_6_5
 + f_7_8_5 + f_7_9_5 - f_8_7_5 - f_9_7_5 = 0
_C112: - f_10_8_5 - f_1_8_5 - f_2_8_5 - f_3_8_5 - f_4_8_5 - f_5_8_5 - f_6_8_5
 - f_7_8_5 + f_8_10_5 + f_8_1_5 + f_8_2_5 + f_8_3_5 + f_8_4_5 + f_8_5_5
 + f_8_6_5 + f_8_7_5 + f_8_9_5 - f_9_8_5 = 0
_C113: - f_10_9_5 - f_1_9_5 - f_2_9_5 - f_3_9_5 - f_4_9_5 - f_5_9_5 - f_6_9_5
 - f_7_9_5 - f_8_9_5 + f_9_10_5 + f_9_1_5 + f_9_2_5 + f_9_3_5 + f_9_4_5
 + f_9_5_5 + f_9_6_5 + f_9_7_5 + f_9_8_5 = 0
_C114: f_10_1_5 + f_10_2_5 + f_10_3_5 + f_10_4_5 + f_10_5_5 + f_10_6_5
 + f_10_7_5 + f_10_8_5 + f_10_9_5 - f_1_10_5 - f_2_10_5 - f_3_10_5 - f_4_10_5
 - f_5_10_5 - f_6_10_5 - f_7_10_5 - f_8_10_5 - f_9_10_5 = 0
_C115: - f_10_2_9 - f_1_2_9 + f_2_10_9 + f_2_1_9 + f_2_3_9 + f_2_4_9 + f_2_5_9
 + f_2_6_9 + f_2_7_9 + f_2_8_9 + f_2_9_9 - f_3_2_9 - f_4_2_9 - f_5_2_9
 - f_6_2_9 - f_7_2_9 - f_8_2_9 - f_9_2_9 = 0
_C116: - f_10_3_9 - f_1_3_9 - f_2_3_9 + f_3_10_9 + f_3_1_9 + f_3_2_9 + f_3_4_9
 + f_3_5_9 + f_3_6_9 + f_3_7_9 + f_3_8_9 + f_3_9_9 - f_4_3_9 - f_5_3_9
 - f_6_3_9 - f_7_3_9 - f_8_3_9 - f_9_3_9 = 0
_C117: - f_10_4_9 - f_1_4_9 - f_2_4_9 - f_3_4_9 + f_4_10_9 + f_4_1_9 + f_4_2_9
 + f_4_3_9 + f_4_5_9 + f_4_6_9 + f_4_7_9 + f_4_8_9 + f_4_9_9 - f_5_4_9
 - f_6_4_9 - f_7_4_9 - f_8_4_9 - f_9_4_9 = 0
_C118: - f_10_5_9 - f_1_5_9 - f_2_5_9 - f_3_5_9 - f_4_5_9 + f_5_10_9 + f_5_1_9
 + f_5_2_9 + f_5_3_9 + f_5_4_9 + f_5_6_9 + f_5_7_9 + f_5_8_9 + f_5_9_9
 - f_6_5_9 - f_7_5_9 - f_8_5_9 - f_9_5_9 = 0
_C119: - f_10_6_9 - f_1_6_9 - f_2_6_9 - f_3_6_9 - f_4_6_9 - f_5_6_9 + f_6_10_9
 + f_6_1_9 + f_6_2_9 + f_6_3_9 + f_6_4_9 + f_6_5_9 + f_6_7_9 + f_6_8_9
 + f_6_9_9 - f_7_6_9 - f_8_6_9 - f_9_6_9 = 0
_C12: x_2_8 - x_8_2 = 0
_C120: - f_10_7_9 - f_1_7_9 - f_2_7_9 - f_3_7_9 - f_4_7_9 - f_5_7_9 - f_6_7_9
 + f_7_10_9 + f_7_1_9 + f_7_2_9 + f_7_3_9 + f_7_4_9 + f_7_5_9 + f_7_6_9
 + f_7_8_9 + f_7_9_9 - f_8_7_9 - f_9_7_9 = 0
_C121: - f_10_8_9 - f_1_8_9 - f_2_8_9 - f_3_8_9 - f_4_8_9 - f_5_8_9 - f_6_8_9
 - f_7_8_9 + f_8_10_9 + f_8_1_9 + f_8_2_9 + f_8_3_9 + f_8_4_9 + f_8_5_9
 + f_8_6_9 + f_8_7_9 + f_8_9_9 - f_9_8_9 = 0
_C122: f_10_1_9 + f_10_2_9 + f_10_3_9 + f_10_4_9 + f_10_5_9 + f_10_6_9
 + f_10_7_9 + f_10_8_9 + f_10_9_9 - f_1_10_9 - f_2_10_9 - f_3_10_9 - f_4_10_9
 - f_5_10_9 - f_6_10_9 - f_7_10_9 - f_8_10_9 - f_9_10_9 = 0
_C123: f_1_10_3 + f_1_2_3 + f_1_3_3 + f_1_4_3 + f_1_5_3 + f_1_6_3 + f_1_7_3
 + f_1_8_3 + f_1_9_3 = 1
_C124: f_10_1_3 + f_2_1_3 + f_3_1_3 + f_4_1_3 + f_5_1_3 + f_6_1_3 + f_7_1_3
 + f_8_1_3 + f_9_1_3 = 0
_C125: f_1_10_7 + f_1_2_7 + f_1_3_7 + f_1_4_7 + f_1_5_7 + f_1_6_7 + f_1_7_7
 + f_1_8_7 + f_1_9_7 = 1
_C126: f_10_1_7 + f_2_1_7 + f_3_1_7 + f_4_1_7 + f_5_1_7 + f_6_1_7 + f_7_1_7
 + f_8_1_7 + f_9_1_7 = 0
_C127: f_1_10_5 + f_1_2_5 + f_1_3_5 + f_1_4_5 + f_1_5_5 + f_1_6_5 + f_1_7_5
 + f_1_8_5 + f_1_9_5 = 1
_C128: f_10_1_5 + f_2_1_5 + f_3_1_5 + f_4_1_5 + f_5_1_5 + f_6_1_5 + f_7_1_5
 + f_8_1_5 + f_9_1_5 = 0
_C129: f_1_10_9 + f_1_2_9 + f_1_3_9 + f_1_4_9 + f_1_5_9 + f_1_6_9 + f_1_7_9
 + f_1_8_9 + f_1_9_9 = 1
_C13: x_2_4 - x_4_2 = 0
_C130: f_10_1_9 + f_2_1_9 + f_3_1_9 + f_4_1_9 + f_5_1_9 + f_6_1_9 + f_7_1_9
 + f_8_1_9 + f_9_1_9 = 0
_C131: f_10_3_3 + f_1_3_3 + f_2_3_3 + f_4_3_3 + f_5_3_3 + f_6_3_3 + f_7_3_3
 + f_8_3_3 + f_9_3_3 = 1
_C132: f_3_10_3 + f_3_1_3 + f_3_2_3 + f_3_4_3 + f_3_5_3 + f_3_6_3 + f_3_7_3
 + f_3_8_3 + f_3_9_3 = 0
_C133: f_10_7_7 + f_1_7_7 + f_2_7_7 + f_3_7_7 + f_4_7_7 + f_5_7_7 + f_6_7_7
 + f_8_7_7 + f_9_7_7 = 1
_C134: f_7_10_7 + f_7_1_7 + f_7_2_7 + f_7_3_7 + f_7_4_7 + f_7_5_7 + f_7_6_7
 + f_7_8_7 + f_7_9_7 = 0
_C135: f_10_5_5 + f_1_5_5 + f_2_5_5 + f_3_5_5 + f_4_5_5 + f_6_5_5 + f_7_5_5
 + f_8_5_5 + f_9_5_5 = 1
_C136: f_5_10_5 + f_5_1_5 + f_5_2_5 + f_5_3_5 + f_5_4_5 + f_5_6_5 + f_5_7_5
 + f_5_8_5 + f_5_9_5 = 0
_C137: f_10_9_9 + f_1_9_9 + f_2_9_9 + f_3_9_9 + f_4_9_9 + f_5_9_9 + f_6_9_9
 + f_7_9_9 + f_8_9_9 = 1
_C138: f_9_10_9 + f_9_1_9 + f_9_2_9 + f_9_3_9 + f_9_4_9 + f_9_5_9 + f_9_6_9
 + f_9_7_9 + f_9_8_9 = 0
_C139: - 2 v_1 - 2 v_10 - 2 v_2 - 2 v_3 - 2 v_4 - 2 v_5 - 2 v_6 - 2 v_7
 - 2 v_8 - 2 v_9 + x_10_1 + x_10_2 + x_10_3 + x_10_4 + x_10_5 + x_10_6
 + x_10_7 + x_10_8 + x_10_9 + x_1_10 + x_1_2 + x_1_3 + x_1_4 + x_1_5 + x_1_6
 + x_1_7 + x_1_8 + x_1_9 + x_2_1 + x_2_10 + x_2_3 + x_2_4 + x_2_5 + x_2_6
 + x_2_7 + x_2_8 + x_2_9 + x_3_1 + x_3_10 + x_3_2 + x_3_4 + x_3_5 + x_3_6
 + x_3_7 + x_3_8 + x_3_9 + x_4_1 + x_4_10 + x_4_2 + x_4_3 + x_4_5 + x_4_6
 + x_4_7 + x_4_8 + x_4_9 + x_5_1 + x_5_10 + x_5_2 + x_5_3 + x_5_4 + x_5_6
 + x_5_7 + x_5_8 + x_5_9 + x_6_1 + x_6_10 + x_6_2 + x_6_3 + x_6_4 + x_6_5
 + x_6_7 + x_6_8 + x_6_9 + x_7_1 + x_7_10 + x_7_2 + x_7_3 + x_7_4 + x_7_5
 + x_7_6 + x_7_8 + x_7_9 + x_8_1 + x_8_10 + x_8_2 + x_8_3 + x_8_4 + x_8_5
 + x_8_6 + x_8_7 + x_8_9 + x_9_1 + x_9_10 + x_9_2 + x_9_3 + x_9_4 + x_9_5
 + x_9_6 + x_9_7 + x_9_8 = -2
_C14: x_2_7 - x_7_2 = 0
_C140: f_1_2_3 - x_1_2 <= 0
_C141: f_1_10_3 - x_1_10 <= 0
_C142: f_1_7_3 - x_1_7 <= 0
_C143: f_1_8_3 - x_1_8 <= 0
_C144: f_1_3_3 - x_1_3 <= 0
_C145: f_1_6_3 - x_1_6 <= 0
_C146: f_1_5_3 - x_1_5 <= 0
_C147: f_1_4_3 - x_1_4 <= 0
_C148: f_1_9_3 - x_1_9 <= 0
_C149: f_2_1_3 - x_2_1 <= 0
_C15: x_2_9 - x_9_2 = 0
_C150: f_2_3_3 - x_2_3 <= 0
_C151: f_2_8_3 - x_2_8 <= 0
_C152: f_2_4_3 - x_2_4 <= 0
_C153: f_2_7_3 - x_2_7 <= 0
_C154: f_2_9_3 - x_2_9 <= 0
_C155: f_2_10_3 - x_2_10 <= 0
_C156: f_2_6_3 - x_2_6 <= 0
_C157: f_2_5_3 - x_2_5 <= 0
_C158: f_3_2_3 - x_3_2 <= 0
_C159: f_3_4_3 - x_3_4 <= 0
_C16: - x_10_2 + x_2_10 = 0
_C160: f_3_9_3 - x_3_9 <= 0
_C161: f_3_5_3 - x_3_5 <= 0
_C162: f_3_7_3 - x_3_7 <= 0
_C163: f_3_1_3 - x_3_1 <= 0
_C164: f_3_8_3 - x_3_8 <= 0
_C165: f_3_10_3 - x_3_10 <= 0
_C166: f_3_6_3 - x_3_6 <= 0
_C167: f_4_3_3 - x_4_3 <= 0
_C168: f_4_5_3 - x_4_5 <= 0
_C169: f_4_2_3 - x_4_2 <= 0
_C17: x_2_6 - x_6_2 = 0
_C170: f_4_8_3 - x_4_8 <= 0
_C171: f_4_6_3 - x_4_6 <= 0
_C172: f_4_7_3 - x_4_7 <= 0
_C173: f_4_1_3 - x_4_1 <= 0
_C174: f_4_9_3 - x_4_9 <= 0
_C175: f_4_10_3 - x_4_10 <= 0
_C176: f_5_4_3 - x_5_4 <= 0
_C177: f_5_6_3 - x_5_6 <= 0
_C178: f_5_8_3 - x_5_8 <= 0
_C179: f_5_3_3 - x_5_3 <= 0
_C18: x_2_5 - x_5_2 = 0
_C180: f_5_9_3 - x_5_9 <= 0
_C181: f_5_7_3 - x_5_7 <= 0
_C182: f_5_1_3 - x_5_1 <= 0
_C183: f_5_10_3 - x_5_10 <= 0
_C184: f_5_2_3 - x_5_2 <= 0
_C185: f_6_5_3 - x_6_5 <= 0
_C186: f_6_7_3 - x_6_7 <= 0
_C187: f_6_10_3 - x_6_10 <= 0
_C188: f_6_9_3 - x_6_9 <= 0
_C189: f_6_4_3 - x_6_4 <= 0
_C19: - x_2_3 + x_3_2 = 0
_C190: f_6_1_3 - x_6_1 <= 0
_C191: f_6_8_3 - x_6_8 <= 0
_C192: f_6_3_3 - x_6_3 <= 0
_C193: f_6_2_3 - x_6_2 <= 0
_C194: f_7_6_3 - x_7_6 <= 0
_C195: f_7_8_3 - x_7_8 <= 0
_C196: f_7_1_3 - x_7_1 <= 0
_C197: f_7_3_3 - x_7_3 <= 0
_C198: f_7_2_3 - x_7_2 <= 0
_C199: f_7_5_3 - x_7_5 <= 0
_C2: - x_10_1 + x_1_10 = 0
_C20: x_3_4 - x_4_3 = 0
_C200: f_7_9_3 - x_7_9 <= 0
_C201: f_7_10_3 - x_7_10 <= 0
_C202: f_7_4_3 - x_7_4 <= 0
_C203: f_8_7_3 - x_8_7 <= 0
_C204: f_8_9_3 - x_8_9 <= 0
_C205: f_8_10_3 - x_8_10 <= 0
_C206: f_8_5_3 - x_8_5 <= 0
_C207: f_8_2_3 - x_8_2 <= 0
_C208: f_8_4_3 - x_8_4 <= 0
_C209: f_8_1_3 - x_8_1 <= 0
_C21: x_3_9 - x_9_3 = 0
_C210: f_8_3_3 - x_8_3 <= 0
_C211: f_8_6_3 - x_8_6 <= 0
_C212: f_9_8_3 - x_9_8 <= 0
_C213: f_9_10_3 - x_9_10 <= 0
_C214: f_9_3_3 - x_9_3 <= 0
_C215: f_9_5_3 - x_9_5 <= 0
_C216: f_9_6_3 - x_9_6 <= 0
_C217: f_9_7_3 - x_9_7 <= 0
_C218: f_9_2_3 - x_9_2 <= 0
_C219: f_9_4_3 - x_9_4 <= 0
_C22: x_3_5 - x_5_3 = 0
_C220: f_9_1_3 - x_9_1 <= 0
_C221: f_10_9_3 - x_10_9 <= 0
_C222: f_10_1_3 - x_10_1 <= 0
_C223: f_10_8_3 - x_10_8 <= 0
_C224: f_10_6_3 - x_10_6 <= 0
_C225: f_10_7_3 - x_10_7 <= 0
_C226: f_10_2_3 - x_10_2 <= 0
_C227: f_10_3_3 - x_10_3 <= 0
_C228: f_10_5_3 - x_10_5 <= 0
_C229: f_10_4_3 - x_10_4 <= 0
_C23: x_3_7 - x_7_3 = 0
_C230: f_1_2_7 - x_1_2 <= 0
_C231: f_1_10_7 - x_1_10 <= 0
_C232: f_1_7_7 - x_1_7 <= 0
_C233: f_1_8_7 - x_1_8 <= 0
_C234: f_1_3_7 - x_1_3 <= 0
_C235: f_1_6_7 - x_1_6 <= 0
_C236: f_1_5_7 - x_1_5 <= 0
_C237: f_1_4_7 - x_1_4 <= 0
_C238: f_1_9_7 - x_1_9 <= 0
_C239: f_2_1_7 - x_2_1 <= 0
_C24: - x_1_3 + x_3_1 = 0
_C240: f_2_3_7 - x_2_3 <= 0
_C241: f_2_8_7 - x_2_8 <= 0
_C242: f_2_4_7 - x_2_4 <= 0
_C243: f_2_7_7 - x_2_7 <= 0
_C244: f_2_9_7 - x_2_9 <= 0
_C245: f_2_10_7 - x_2_10 <= 0
_C246: f_2_6_7 - x_2_6 <= 0
_C247: f_2_5_7 - x_2_5 <= 0
_C248: f_3_2_7 - x_3_2 <= 0
_C249: f_3_4_7 - x_3_4 <= 0
_C25: x_3_8 - x_8_3 = 0
_C250: f_3_9_7 - x_3_9 <= 0
_C251: f_3_5_7 - x_3_5 <= 0
_C252: f_3_7_7 - x_3_7 <= 0
_C253: f_3_1_7 - x_3_1 <= 0
_C254: f_3_8_7 - x_3_8 <= 0
_C255: f_3_10_7 - x_3_10 <= 0
_C256: f_3_6_7 - x_3_6 <= 0
_C257: f_4_3_7 - x_4_3 <= 0
_C258: f_4_5_7 - x_4_5 <= 0
_C259: f_4_2_7 - x_4_2 <= 0
_C26: - x_10_3 + x_3_10 = 0
_C260: f_4_8_7 - x_4_8 <= 0
_C261: f_4_6_7 - x_4_6 <= 0
_C262: f_4_7_7 - x_4_7 <= 0
_C263: f_4_1_7 - x_4_1 <= 0
_C264: f_4_9_7 - x_4_9 <= 0
_C265: f_4_10_7 - x_4_10 <= 0
_C266: f_5_4_7 - x_5_4 <= 0
_C267: f_5_6_7 - x_5_6 <= 0
_C268: f_5_8_7 - x_5_8 <= 0
_C269: f_5_3_7 - x_5_3 <= 0
_C27: x_3_6 - x_6_3 = 0
_C270: f_5_9_7 - x_5_9 <= 0
_C271: f_5_7_7 - x_5_7 <= 0
_C272: f_5_1_7 - x_5_1 <= 0
_C273: f_5_10_7 - x_5_10 <= 0
_C274: f_5_2_7 - x_5_2 <= 0
_C275: f_6_5_7 - x_6_5 <= 0
_C276: f_6_7_7 - x_6_7 <= 0
_C277: f_6_10_7 - x_6_10 <= 0
_C278: f_6_9_7 - x_6_9 <= 0
_C279: f_6_4_7 - x_6_4 <= 0
_C28: - x_3_4 + x_4_3 = 0
_C280: f_6_1_7 - x_6_1 <= 0
_C281: f_6_8_7 - x_6_8 <= 0
_C282: f_6_3_7 - x_6_3 <= 0
_C283: f_6_2_7 - x_6_2 <= 0
_C284: f_7_6_7 - x_7_6 <= 0
_C285: f_7_8_7 - x_7_8 <= 0
_C286: f_7_1_7 - x_7_1 <= 0
_C287: f_7_3_7 - x_7_3 <= 0
_C288: f_7_2_7 - x_7_2 <= 0
_C289: f_7_5_7 - x_7_5 <= 0
_C29: x_4_5 - x_5_4 = 0
_C290: f_7_9_7 - x_7_9 <= 0
_C291: f_7_10_7 - x_7_10 <= 0
_C292: f_7_4_7 - x_7_4 <= 0
_C293: f_8_7_7 - x_8_7 <= 0
_C294: f_8_9_7 - x_8_9 <= 0
_C295: f_8_10_7 - x_8_10 <= 0
_C296: f_8_5_7 - x_8_5 <= 0
_C297: f_8_2_7 - x_8_2 <= 0
_C298: f_8_4_7 - x_8_4 <= 0
_C299: f_8_1_7 - x_8_1 <= 0
_C3: x_1_7 - x_7_1 = 0
_C30: - x_2_4 + x_4_2 = 0
_C300: f_8_3_7 - x_8_3 <= 0
_C301: f_8_6_7 - x_8_6 <= 0
_C302: f_9_8_7 - x_9_8 <= 0
_C303: f_9_10_7 - x_9_10 <= 0
_C304: f_9_3_7 - x_9_3 <= 0
_C305: f_9_5_7 - x_9_5 <= 0
_C306: f_9_6_7 - x_9_6 <= 0
_C307: f_9_7_7 - x_9_7 <= 0
_C308: f_9_2_7 - x_9_2 <= 0
_C309: f_9_4_7 - x_9_4 <= 0
_C31: x_4_8 - x_8_4 = 0
_C310: f_9_1_7 - x_9_1 <= 0
_C311: f_10_9_7 - x_10_9 <= 0
_C312: f_10_1_7 - x_10_1 <= 0
_C313: f_10_8_7 - x_10_8 <= 0
_C314: f_10_6_7 - x_10_6 <= 0
_C315: f_10_7_7 - x_10_7 <= 0
_C316: f_10_2_7 - x_10_2 <= 0
_C317: f_10_3_7 - x_10_3 <= 0
_C318: f_10_5_7 - x_10_5 <= 0
_C319: f_10_4_7 - x_10_4 <= 0
_C32: x_4_6 - x_6_4 = 0
_C320: f_1_2_5 - x_1_2 <= 0
_C321: f_1_10_5 - x_1_10 <= 0
_C322: f_1_7_5 - x_1_7 <= 0
_C323: f_1_8_5 - x_1_8 <= 0
_C324: f_1_3_5 - x_1_3 <= 0
_C325: f_1_6_5 - x_1_6 <= 0
_C326: f_1_5_5 - x_1_5 <= 0
_C327: f_1_4_5 - x_1_4 <= 0
_C328: f_1_9_5 - x_1_9 <= 0
_C329: f_2_1_5 - x_2_1 <= 0
_C33: x_4_7 - x_7_4 = 0
_C330: f_2_3_5 - x_2_3 <= 0
_C331: f_2_8_5 - x_2_8 <= 0
_C332: f_2_4_5 - x_2_4 <= 0
_C333: f_2_7_5 - x_2_7 <= 0
_C334: f_2_9_5 - x_2_9 <= 0
_C335: f_2_10_5 - x_2_10 <= 0
_C336: f_2_6_5 - x_2_6 <= 0
_C337: f_2_5_5 - x_2_5 <= 0
_C338: f_3_2_5 - x_3_2 <= 0
_C339: f_3_4_5 - x_3_4 <= 0
_C34: - x_1_4 + x_4_1 = 0
_C340: f_3_9_5 - x_3_9 <= 0
_C341: f_3_5_5 - x_3_5 <= 0
_C342: f_3_7_5 - x_3_7 <= 0
_C343: f_3_1_5 - x_3_1 <= 0
_C344: f_3_8_5 - x_3_8 <= 0
_C345: f_3_10_5 - x_3_10 <= 0
_C346: f_3_6_5 - x_3_6 <= 0
_C347: f_4_3_5 - x_4_3 <= 0
_C348: f_4_5_5 - x_4_5 <= 0
_C349: f_4_2_5 - x_4_2 <= 0
_C35: x_4_9 - x_9_4 = 0
_C350: f_4_8_5 - x_4_8 <= 0
_C351: f_4_6_5 - x_4_6 <= 0
_C352: f_4_7_5 - x_4_7 <= 0
_C353: f_4_1_5 - x_4_1 <= 0
_C354: f_4_9_5 - x_4_9 <= 0
_C355: f_4_10_5 - x_4_10 <= 0
_C356: f_5_4_5 - x_5_4 <= 0
_C357: f_5_6_5 - x_5_6 <= 0
_C358: f_5_8_5 - x_5_8 <= 0
_C359: f_5_3_5 - x_5_3 <= 0
_C36: - x_10_4 + x_4_10 = 0
_C360: f_5_9_5 - x_5_9 <= 0
_C361: f_5_7_5 - x_5_7 <= 0
_C362: f_5_1_5 - x_5_1 <= 0
_C363: f_5_10_5 - x_5_10 <= 0
_C364: f_5_2_5 - x_5_2 <= 0
_C365: f_6_5_5 - x_6_5 <= 0
_C366: f_6_7_5 - x_6_7 <= 0
_C367: f_6_10_5 - x_6_10 <= 0
_C368: f_6_9_5 - x_6_9 <= 0
_C369: f_6_4_5 - x_6_4 <= 0
_C37: - x_4_5 + x_5_4 = 0
_C370: f_6_1_5 - x_6_1 <= 0
_C371: f_6_8_5 - x_6_8 <= 0
_C372: f_6_3_5 - x_6_3 <= 0
_C373: f_6_2_5 - x_6_2 <= 0
_C374: f_7_6_5 - x_7_6 <= 0
_C375: f_7_8_5 - x_7_8 <= 0
_C376: f_7_1_5 - x_7_1 <= 0
_C377: f_7_3_5 - x_7_3 <= 0
_C378: f_7_2_5 - x_7_2 <= 0
_C379: f_7_5_5 - x_7_5 <= 0
_C38: x_5_6 - x_6_5 = 0
_C380: f_7_9_5 - x_7_9 <= 0
_C381: f_7_10_5 - x_7_10 <= 0
_C382: f_7_4_5 - x_7_4 <= 0
_C383: f_8_7_5 - x_8_7 <= 0
_C384: f_8_9_5 - x_8_9 <= 0
_C385: f_8_10_5 - x_8_10 <= 0
_C386: f_8_5_5 - x_8_5 <= 0
_C387: f_8_2_5 - x_8_2 <= 0
_C388: f_8_4_5 - x_8_4 <= 0
_C389: f_8_1_5 - x_8_1 <= 0
_C39: x_5_8 - x_8_5 = 0
_C390: f_8_3_5 - x_8_3 <= 0
_C391: f_8_6_5 - x_8_6 <= 0
_C392: f_9_8_5 - x_9_8 <= 0
_C393: f_9_10_5 - x_9_10 <= 0
_C394: f_9_3_5 - x_9_3 <= 0
_C395: f_9_5_5 - x_9_5 <= 0
_C396: f_9_6_5 - x_9_6 <= 0
_C397: f_9_7_5 - x_9_7 <= 0
_C398: f_9_2_5 - x_9_2 <= 0
_C399: f_9_4_5 - x_9_4 <= 0
_C4: x_1_8 - x_8_1 = 0
_C40: - x_3_5 + x_5_3 = 0
_C400: f_9_1_5 - x_9_1 <= 0
_C401: f_10_9_5 - x_10_9 <= 0
_C402: f_10_1_5 - x_10_1 <= 0
_C403: f_10_8_5 - x_10_8 <= 0
_C404: f_10_6_5 - x_10_6 <= 0
_C405: f_10_7_5 - x_10_7 <= 0
_C406: f_10_2_5 - x_10_2 <= 0
_C407: f_10_3_5 - x_10_3 <= 0
_C408: f_10_5_5 - x_10_5 <= 0
_C409: f_10_4_5 - x_10_4 <= 0
_C41: x_5_9 - x_9_5 = 0
_C410: f_1_2_9 - x_1_2 <= 0
_C411: f_1_10_9 - x_1_10 <= 0
_C412: f_1_7_9 - x_1_7 <= 0
_C413: f_1_8_9 - x_1_8 <= 0
_C414: f_1_3_9 - x_1_3 <= 0
_C415: f_1_6_9 - x_1_6 <= 0
_C416: f_1_5_9 - x_1_5 <= 0
_C417: f_1_4_9 - x_1_4 <= 0
_C418: f_1_9_9 - x_1_9 <= 0
_C419: f_2_1_9 - x_2_1 <= 0
_C42: x_5_7 - x_7_5 = 0
_C420: f_2_3_9 - x_2_3 <= 0
_C421: f_2_8_9 - x_2_8 <= 0
_C422: f_2_4_9 - x_2_4 <= 0
_C423: f_2_7_9 - x_2_7 <= 0
_C424: f_2_9_9 - x_2_9 <= 0
_C425: f_2_10_9 - x_2_10 <= 0
_C426: f_2_6_9 - x_2_6 <= 0
_C427: f_2_5_9 - x_2_5 <= 0
_C428: f_3_2_9 - x_3_2 <= 0
_C429: f_3_4_9 - x_3_4 <= 0
_C43: - x_1_5 + x_5_1 = 0
_C430: f_3_9_9 - x_3_9 <= 0
_C431: f_3_5_9 - x_3_5 <= 0
_C432: f_3_7_9 - x_3_7 <= 0
_C433: f_3_1_9 - x_3_1 <= 0
_C434: f_3_8_9 - x_3_8 <= 0
_C435: f_3_10_9 - x_3_10 <= 0
_C436: f_3_6_9 - x_3_6 <= 0
_C437: f_4_3_9 - x_4_3 <= 0
_C438: f_4_5_9 - x_4_5 <= 0
_C439: f_4_2_9 - x_4_2 <= 0
_C44: - x_10_5 + x_5_10 = 0
_C440: f_4_8_9 - x_4_8 <= 0
_C441: f_4_6_9 - x_4_6 <= 0
_C442: f_4_7_9 - x_4_7 <= 0
_C443: f_4_1_9 - x_4_1 <= 0
_C444: f_4_9_9 - x_4_9 <= 0
_C445: f_4_10_9 - x_4_10 <= 0
_C446: f_5_4_9 - x_5_4 <= 0
_C447: f_5_6_9 - x_5_6 <= 0
_C448: f_5_8_9 - x_5_8 <= 0
_C449: f_5_3_9 - x_5_3 <= 0
_C45: - x_2_5 + x_5_2 = 0
_C450: f_5_9_9 - x_5_9 <= 0
_C451: f_5_7_9 - x_5_7 <= 0
_C452: f_5_1_9 - x_5_1 <= 0
_C453: f_5_10_9 - x_5_10 <= 0
_C454: f_5_2_9 - x_5_2 <= 0
_C455: f_6_5_9 - x_6_5 <= 0
_C456: f_6_7_9 - x_6_7 <= 0
_C457: f_6_10_9 - x_6_10 <= 0
_C458: f_6_9_9 - x_6_9 <= 0
_C459: f_6_4_9 - x_6_4 <= 0
_C46: - x_5_6 + x_6_5 = 0
_C460: f_6_1_9 - x_6_1 <= 0
_C461: f_6_8_9 - x_6_8 <= 0
_C462: f_6_3_9 - x_6_3 <= 0
_C463: f_6_2_9 - x_6_2 <= 0
_C464: f_7_6_9 - x_7_6 <= 0
_C465: f_7_8_9 - x_7_8 <= 0
_C466: f_7_1_9 - x_7_1 <= 0
_C467: f_7_3_9 - x_7_3 <= 0
_C468: f_7_2_9 - x_7_2 <= 0
_C469: f_7_5_9 - x_7_5 <= 0
_C47: x_6_7 - x_7_6 = 0
_C470: f_7_9_9 - x_7_9 <= 0
_C471: f_7_10_9 - x_7_10 <= 0
_C472: f_7_4_9 - x_7_4 <= 0
_C473: f_8_7_9 - x_8_7 <= 0
_C474: f_8_9_9 - x_8_9 <= 0
_C475: f_8_10_9 - x_8_10 <= 0
_C476: f_8_5_9 - x_8_5 <= 0
_C477: f_8_2_9 - x_8_2 <= 0
_C478: f_8_4_9 - x_8_4 <= 0
_C479: f_8_1_9 - x_8_1 <= 0
_C48: - x_10_6 + x_6_10 = 0
_C480: f_8_3_9 - x_8_3 <= 0
_C481: f_8_6_9 - x_8_6 <= 0
_C482: f_9_8_9 - x_9_8 <= 0
_C483: f_9_10_9 - x_9_10 <= 0
_C484: f_9_3_9 - x_9_3 <= 0
_C485: f_9_5_9 - x_9_5 <= 0
_C486: f_9_6_9 - x_9_6 <= 0
_C487: f_9_7_9 - x_9_7 <= 0
_C488: f_9_2_9 - x_9_2 <= 0
_C489: f_9_4_9 - x_9_4 <= 0
_C49: x_6_9 - x_9_6 = 0
_C490: f_9_1_9 - x_9_1 <= 0
_C491: f_10_9_9 - x_10_9 <= 0
_C492: f_10_1_9 - x_10_1 <= 0
_C493: f_10_8_9 - x_10_8 <= 0
_C494: f_10_6_9 - x_10_6 <= 0
_C495: f_10_7_9 - x_10_7 <= 0
_C496: f_10_2_9 - x_10_2 <= 0
_C497: f_10_3_9 - x_10_3 <= 0
_C498: f_10_5_9 - x_10_5 <= 0
_C499: f_10_4_9 - x_10_4 <= 0
_C5: x_1_3 - x_3_1 = 0
_C50: - x_4_6 + x_6_4 = 0
_C500: - v_1 + x_1_2 <= 0
_C501: - v_2 + x_2_1 <= 0
_C502: - v_1 + x_1_10 <= 0
_C503: - v_10 + x_10_1 <= 0
_C504: - v_1 + x_1_7 <= 0
_C505: - v_7 + x_7_1 <= 0
_C506: - v_1 + x_1_8 <= 0
_C507: - v_8 + x_8_1 <= 0
_C508: - v_1 + x_1_3 <= 0
_C509: - v_3 + x_3_1 <= 0
_C51: - x_1_6 + x_6_1 = 0
_C510: - v_1 + x_1_6 <= 0
_C511: - v_6 + x_6_1 <= 0
_C512: - v_1 + x_1_5 <= 0
_C513: - v_5 + x_5_1 <= 0
_C514: - v_1 + x_1_4 <= 0
_C515: - v_4 + x_4_1 <= 0
_C516: - v_1 + x_1_9 <= 0
_C517: - v_9 + x_9_1 <= 0
_C518: - v_2 + x_2_1 <= 0
_C519: - v_1 + x_1_2 <= 0
_C52: x_6_8 - x_8_6 = 0
_C520: - v_2 + x_2_3 <= 0
_C521: - v_3 + x_3_2 <= 0
_C522: - v_2 + x_2_8 <= 0
_C523: - v_8 + x_8_2 <= 0
_C524: - v_2 + x_2_4 <= 0
_C525: - v_4 + x_4_2 <= 0
_C526: - v_2 + x_2_7 <= 0
_C527: - v_7 + x_7_2 <= 0
_C528: - v_2 + x_2_9 <= 0
_C529: - v_9 + x_9_2 <= 0
_C53: - x_3_6 + x_6_3 = 0
_C530: - v_2 + x_2_10 <= 0
_C531: - v_10 + x_10_2 <= 0
_C532: - v_2 + x_2_6 <= 0
_C533: - v_6 + x_6_2 <= 0
_C534: - v_2 + x_2_5 <= 0
_C535: - v_5 + x_5_2 <= 0
_C536: - v_3 + x_3_2 <= 0
_C537: - v_2 + x_2_3 <= 0
_C538: - v_3 + x_3_4 <= 0
_C539: - v_4 + x_4_3 <= 0
_C54: - x_2_6 + x_6_2 = 0
_C540: - v_3 + x_3_9 <= 0
_C541: - v_9 + x_9_3 <= 0
_C542: - v_3 + x_3_5 <= 0
_C543: - v_5 + x_5_3 <= 0
_C544: - v_3 + x_3_7 <= 0
_C545: - v_7 + x_7_3 <= 0
_C546: - v_3 + x_3_1 <= 0
_C547: - v_1 + x_1_3 <= 0
_C548: - v_3 + x_3_8 <= 0
_C549: - v_8 + x_8_3 <= 0
_C55: - x_6_7 + x_7_6 = 0
_C550: - v_3 + x_3_10 <= 0
_C551: - v_10 + x_10_3 <= 0
_C552: - v_3 + x_3_6 <= 0
_C553: - v_6 + x_6_3 <= 0
_C554: - v_4 + x_4_3 <= 0
_C555: - v_3 + x_3_4 <= 0
_C556: - v_4 + x_4_5 <= 0
_C557: - v_5 + x_5_4 <= 0
_C558: - v_4 + x_4_2 <= 0
_C559: - v_2 + x_2_4 <= 0
_C56: x_7_8 - x_8_7 = 0
_C560: - v_4 + x_4_8 <= 0
_C561: - v_8 + x_8_4 <= 0
_C562: - v_4 + x_4_6 <= 0
_C563: - v_6 + x_6_4 <= 0
_C564: - v_4 + x_4_7 <= 0
_C565: - v_7 + x_7_4 <= 0
_C566: - v_4 + x_4_1 <= 0
_C567: - v_1 + x_1_4 <= 0
_C568: - v_4 + x_4_9 <= 0
_C569: - v_9 + x_9_4 <= 0
_C57: - x_1_7 + x_7_1 = 0
_C570: - v_4 + x_4_10 <= 0
_C571: - v_10 + x_10_4 <= 0
_C572: - v_5 + x_5_4 <= 0
_C573: - v_4 + x_4_5 <= 0
_C574: - v_5 + x_5_6 <= 0
_C575: - v_6 + x_6_5 <= 0
_C576: - v_5 + x_5_8 <= 0
_C577: - v_8 + x_8_5 <= 0
_C578: - v_5 + x_5_3 <= 0
_C579: - v_3 + x_3_5 <= 0
_C58: - x_3_7 + x_7_3 = 0
_C580: - v_5 + x_5_9 <= 0
_C581: - v_9 + x_9_5 <= 0
_C582: - v_5 + x_5_7 <= 0
_C583: - v_7 + x_7_5 <= 0
_C584: - v_5 + x_5_1 <= 0
_C585: - v_1 + x_1_5 <= 0
_C586: - v_5 + x_5_10 <= 0
_C587: - v_10 + x_10_5 <= 0
_C588: - v_5 + x_5_2 <= 0
_C589: - v_2 + x_2_5 <= 0
_C59: - x_2_7 + x_7_2 = 0
_C590: - v_6 + x_6_5 <= 0
_C591: - v_5 + x_5_6 <= 0
_C592: - v_6 + x_6_7 <= 0
_C593: - v_7 + x_7_6 <= 0
_C594: - v_6 + x_6_10 <= 0
_C595: - v_10 + x_10_6 <= 0
_C596: - v_6 + x_6_9 <= 0
_C597: - v_9 + x_9_6 <= 0
_C598: - v_6 + x_6_4 <= 0
_C599: - v_4 + x_4_6 <= 0
_C6: x_1_6 - x_6_1 = 0
_C60: - x_5_7 + x_7_5 = 0
_C600: - v_6 + x_6_1 <= 0
_C601: - v_1 + x_1_6 <= 0
_C602: - v_6 + x_6_8 <= 0
_C603: - v_8 + x_8_6 <= 0
_C604: - v_6 + x_6_3 <= 0
_C605: - v_3 + x_3_6 <= 0
_C606: - v_6 + x_6_2 <= 0
_C607: - v_2 + x_2_6 <= 0
_C608: - v_7 + x_7_6 <= 0
_C609: - v_6 + x_6_7 <= 0
_C61: x_7_9 - x_9_7 = 0
_C610: - v_7 + x_7_8 <= 0
_C611: - v_8 + x_8_7 <= 0
_C612: - v_7 + x_7_1 <= 0
_C613: - v_1 + x_1_7 <= 0
_C614: - v_7 + x_7_3 <= 0
_C615: - v_3 + x_3_7 <= 0
_C616: - v_7 + x_7_2 <= 0
_C617: - v_2 + x_2_7 <= 0
_C618: - v_7 + x_7_5 <= 0
_C619: - v_5 + x_5_7 <= 0
_C62: - x_10_7 + x_7_10 = 0
_C620: - v_7 + x_7_9 <= 0
_C621: - v_9 + x_9_7 <= 0
_C622: - v_7 + x_7_10 <= 0
_C623: - v_10 + x_10_7 <= 0
_C624: - v_7 + x_7_4 <= 0
_C625: - v_4 + x_4_7 <= 0
_C626: - v_8 + x_8_7 <= 0
_C627: - v_7 + x_7_8 <= 0
_C628: - v_8 + x_8_9 <= 0
_C629: - v_9 + x_9_8 <= 0
_C63: - x_4_7 + x_7_4 = 0
_C630: - v_8 + x_8_10 <= 0
_C631: - v_10 + x_10_8 <= 0
_C632: - v_8 + x_8_5 <= 0
_C633: - v_5 + x_5_8 <= 0
_C634: - v_8 + x_8_2 <= 0
_C635: - v_2 + x_2_8 <= 0
_C636: - v_8 + x_8_4 <= 0
_C637: - v_4 + x_4_8 <= 0
_C638: - v_8 + x_8_1 <= 0
_C639: - v_1 + x_1_8 <= 0
_C64: - x_7_8 + x_8_7 = 0
_C640: - v_8 + x_8_3 <= 0
_C641: - v_3 + x_3_8 <= 0
_C642: - v_8 + x_8_6 <= 0
_C643: - v_6 + x_6_8 <= 0
_C644: - v_9 + x_9_8 <= 0
_C645: - v_8 + x_8_9 <= 0
_C646: - v_9 + x_9_10 <= 0
_C647: - v_10 + x_10_9 <= 0
_C648: - v_9 + x_9_3 <= 0
_C649: - v_3 + x_3_9 <= 0
_C65: x_8_9 - x_9_8 = 0
_C650: - v_9 + x_9_5 <= 0
_C651: - v_5 + x_5_9 <= 0
_C652: - v_9 + x_9_6 <= 0
_C653: - v_6 + x_6_9 <= 0
_C654: - v_9 + x_9_7 <= 0
_C655: - v_7 + x_7_9 <= 0
_C656: - v_9 + x_9_2 <= 0
_C657: - v_2 + x_2_9 <= 0
_C658: - v_9 + x_9_4 <= 0
_C659: - v_4 + x_4_9 <= 0
_C66: - x_10_8 + x_8_10 = 0
_C660: - v_9 + x_9_1 <= 0
_C661: - v_1 + x_1_9 <= 0
_C662: - v_10 + x_10_9 <= 0
_C663: - v_9 + x_9_10 <= 0
_C664: - v_10 + x_10_1 <= 0
_C665: - v_1 + x_1_10 <= 0
_C666: - v_10 + x_10_8 <= 0
_C667: - v_8 + x_8_10 <= 0
_C668: - v_10 + x_10_6 <= 0
_C669: - v_6 + x_6_10 <= 0
_C67: - x_5_8 + x_8_5 = 0
_C670: - v_10 + x_10_7 <= 0
_C671: - v_7 + x_7_10 <= 0
_C672: - v_10 + x_10_2 <= 0
_C673: - v_2 + x_2_10 <= 0
_C674: - v_10 + x_10_3 <= 0
_C675: - v_3 + x_3_10 <= 0
_C676: - v_10 + x_10_5 <= 0
_C677: - v_5 + x_5_10 <= 0
_C678: - v_10 + x_10_4 <= 0
_C679: - v_4 + x_4_10 <= 0
_C68: - x_2_8 + x_8_2 = 0
_C69: - x_4_8 + x_8_4 = 0
_C7: x_1_5 - x_5_1 = 0
_C70: - x_1_8 + x_8_1 = 0
_C71: - x_3_8 + x_8_3 = 0
_C72: - x_6_8 + x_8_6 = 0
_C73: - x_8_9 + x_9_8 = 0
_C74: - x_10_9 + x_9_10 = 0
_C75: - x_3_9 + x_9_3 = 0
_C76: - x_5_9 + x_9_5 = 0
_C77: - x_6_9 + x_9_6 = 0
_C78: - x_7_9 + x_9_7 = 0
_C79: - x_2_9 + x_9_2 = 0
_C8: x_1_4 - x_4_1 = 0
_C80: - x_4_9 + x_9_4 = 0
_C81: - x_1_9 + x_9_1 = 0
_C82: x_10_9 - x_9_10 = 0
_C83: x_10_1 - x_1_10 = 0
_C84: x_10_8 - x_8_10 = 0
_C85: x_10_6 - x_6_10 = 0
_C86: x_10_7 - x_7_10 = 0
_C87: x_10_2 - x_2_10 = 0
_C88: x_10_3 - x_3_10 = 0
_C89: x_10_5 - x_5_10 = 0
_C9: x_1_9 - x_9_1 = 0
_C90: x_10_4 - x_4_10 = 0
_C91: - f_10_2_3 - f_1_2_3 + f_2_10_3 + f_2_1_3 + f_2_3_3 + f_2_4_3 + f_2_5_3
 + f_2_6_3 + f_2_7_3 + f_2_8_3 + f_2_9_3 - f_3_2_3 - f_4_2_3 - f_5_2_3
 - f_6_2_3 - f_7_2_3 - f_8_2_3 - f_9_2_3 = 0
_C92: - f_10_4_3 - f_1_4_3 - f_2_4_3 - f_3_4_3 + f_4_10_3 + f_4_1_3 + f_4_2_3
 + f_4_3_3 + f_4_5_3 + f_4_6_3 + f_4_7_3 + f_4_8_3 + f_4_9_3 - f_5_4_3
 - f_6_4_3 - f_7_4_3 - f_8_4_3 - f_9_4_3 = 0
_C93: - f_10_5_3 - f_1_5_3 - f_2_5_3 - f_3_5_3 - f_4_5_3 + f_5_10_3 + f_5_1_3
 + f_5_2_3 + f_5_3_3 + f_5_4_3 + f_5_6_3 + f_5_7_3 + f_5_8_3 + f_5_9_3
 - f_6_5_3 - f_7_5_3 - f_8_5_3 - f_9_5_3 = 0
_C94: - f_10_6_3 - f_1_6_3 - f_2_6_3 - f_3_6_3 - f_4_6_3 - f_5_6_3 + f_6_10_3
 + f_6_1_3 + f_6_2_3 + f_6_3_3 + f_6_4_3 + f_6_5_3 + f_6_7_3 + f_6_8_3
 + f_6_9_3 - f_7_6_3 - f_8_6_3 - f_9_6_3 = 0
_C95: - f_10_7_3 - f_1_7_3 - f_2_7_3 - f_3_7_3 - f_4_7_3 - f_5_7_3 - f_6_7_3
 + f_7_10_3 + f_7_1_3 + f_7_2_3 + f_7_3_3 + f_7_4_3 + f_7_5_3 + f_7_6_3
 + f_7_8_3 + f_7_9_3 - f_8_7_3 - f_9_7_3 = 0
_C96: - f_10_8_3 - f_1_8_3 - f_2_8_3 - f_3_8_3 - f_4_8_3 - f_5_8_3 - f_6_8_3
 - f_7_8_3 + f_8_10_3 + f_8_1_3 + f_8_2_3 + f_8_3_3 + f_8_4_3 + f_8_5_3
 + f_8_6_3 + f_8_7_3 + f_8_9_3 - f_9_8_3 = 0
_C97: - f_10_9_3 - f_1_9_3 - f_2_9_3 - f_3_9_3 - f_4_9_3 - f_5_9_3 - f_6_9_3
 - f_7_9_3 - f_8_9_3 + f_9_10_3 + f_9_1_3 + f_9_2_3 + f_9_3_3 + f_9_4_3
 + f_9_5_3 + f_9_6_3 + f_9_7_3 + f_9_8_3 = 0
_C98: f_10_1_3 + f_10_2_3 + f_10_3_3 + f_10_4_3 + f_10_5_3 + f_10_6_3
 + f_10_7_3 + f_10_8_3 + f_10_9_3 - f_1_10_3 - f_2_10_3 - f_3_10_3 - f_4_10_3
 - f_5_10_3 - f_6_10_3 - f_7_10_3 - f_8_10_3 - f_9_10_3 = 0
_C99: - f_10_2_7 - f_1_2_7 + f_2_10_7 + f_2_1_7 + f_2_3_7 + f_2_4_7 + f_2_5_7
 + f_2_6_7 + f_2_7_7 + f_2_8_7 + f_2_9_7 - f_3_2_7 - f_4_2_7 - f_5_2_7
 - f_6_2_7 - f_7_2_7 - f_8_2_7 - f_9_2_7 = 0
Binaries
f_10_1_3
f_10_1_5
f_10_1_7
f_10_1_9
f_10_2_3
f_10_2_5
f_10_2_7
f_10_2_9
f_10_3_3
f_10_3_5
f_10_3_7
f_10_3_9
f_10_4_3
f_10_4_5
f_10_4_7
f_10_4_9
f_10_5_3
f_10_5_5
f_10_5_7
f_10_5_9
f_10_6_3
f_10_6_5
f_10_6_7
f_10_6_9
f_10_7_3
f_10_7_5
f_10_7_7
f_10_7_9
f_10_8_3
f_10_8_5
f_10_8_7
f_10_8_9
f_10_9_3
f_10_9_5
f_10_9_7
f_10_9_9
f_1_10_3
f_1_10_5
f_1_10_7
f_1_10_9
f_1_2_3
f_1_2_5
f_1_2_7
f_1_2_9
f_1_3_3
f_1_3_5
f_1_3_7
f_1_3_9
f_1_4_3
f_1_4_5
f_1_4_7
f_1_4_9
f_1_5_3
f_1_5_5
f_1_5_7
f_1_5_9
f_1_6_3
f_1_6_5
f_1_6_7
f_1_6_9
f_1_7_3
f_1_7_5
f_1_7_7
f_1_7_9
f_1_8_3
f_1_8_5
f_1_8_7
f_1_8_9
f_1_9_3
f_1_9_5
f_1_9_7
f_1_9_9
f_2_10_3
f_2_10_5
f_2_10_7
f_2_10_9
f_2_1_3
f_2_1_5
f_2_1_7
f_2_1_9
f_2_3_3
f_2_3_5
f_2_3_7
f_2_3_9
f_2_4_3
f_2_4_5
f_2_4_7
f_2_4_9
f_2_5_3
f_2_5_5
f_2_5_7
f_2_5_9
f_2_6_3
f_2_6_5
f_2_6_7
f_2_6_9
f_2_7_3
f_2_7_5
f_2_7_7
f_2_7_9
f_2_8_3
f_2_8_5
f_2_8_7
f_2_8_9
f_2_9_3
f_2_9_5
f_2_9_7
f_2_9_9
f_3_10_3
f_3_10_5
f_3_10_7
f_3_10_9
f_3_1_3
f_3_1_5
f_3_1_7
f_3_1_9
f_3_2_3
f_3_2_5
f_3_2_7
f_3_2_9
f_3_4_3
f_3_4_5
f_3_4_7
f_3_4_9
f_3_5_3
f_3_5_5
f_3_5_7
f_3_5_9
f_3_6_3
f_3_6_5
f_3_6_7
f_3_6_9
f_3_7_3
f_3_7_5
f_3_7_7
f_3_7_9
f_3_8_3
f_3_8_5
f_3_8_7
f_3_8_9
f_3_9_3
f_3_9_5
f_3_9_7
f_3_9_9
f_4_10_3
f_4_10_5
f_4_10_7
f_4_10_9
f_4_1_3
f_4_1_5
f_4_1_7
f_4_1_9
f_4_2_3
f_4_2_5
f_4_2_7
f_4_2_9
f_4_3_3
f_4_3_5
f_4_3_7
f_4_3_9
f_4_5_3
f_4_5_5
f_4_5_7
f_4_5_9
f_4_6_3
f_4_6_5
f_4_6_7
f_4_6_9
f_4_7_3
f_4_7_5
f_4_7_7
f_4_7_9
f_4_8_3
f_4_8_5
f_4_8_7
f_4_8_9
f_4_9_3
f_4_9_5
f_4_9_7
f_4_9_9
f_5_10_3
f_5_10_5
f_5_10_7
f_5_10_9
f_5_1_3
f_5_1_5
f_5_1_7
f_5_1_9
f_5_2_3
f_5_2_5
f_5_2_7
f_5_2_9
f_5_3_3
f_5_3_5
f_5_3_7
f_5_3_9
f_5_4_3
f_5_4_5
f_5_4_7
f_5_4_9
f_5_6_3
f_5_6_5
f_5_6_7
f_5_6_9
f_5_7_3
f_5_7_5
f_5_7_7
f_5_7_9
f_5_8_3
f_5_8_5
f_5_8_7
f_5_8_9
f_5_9_3
f_5_9_5
f_5_9_7
f_5_9_9
f_6_10_3
f_6_10_5
f_6_10_7
f_6_10_9
f_6_1_3
f_6_1_5
f_6_1_7
f_6_1_9
f_6_2_3
f_6_2_5
f_6_2_7
f_6_2_9
f_6_3_3
f_6_3_5
f_6_3_7
f_6_3_9
f_6_4_3
f_6_4_5
f_6_4_7
f_6_4_9
f_6_5_3
f_6_5_5
f_6_5_7
f_6_5_9
f_6_7_3
f_6_7_5
f_6_7_7
f_6_7_9
f_6_8_3
f_6_8_5
f_6_8_7
f_6_8_9
f_6_9_3
f_6_9_5
f_6_9_7
f_6_9_9
f_7_10_3
f_7_10_5
f_7_10_7
f_7_10_9
f_7_1_3
f_7_1_5
f_7_1_7
f_7_1_9
f_7_2_3
f_7_2_5
f_7_2_7
f_7_2_9
f_7_3_3
f_7_3_5
f_7_3_7
f_7_3_9
f_7_4_3
f_7_4_5
f_7_4_7
f_7_4_9
f_7_5_3
f_7_5_5
f_7_5_7
f_7_5_9
f_7_6_3
f_7_6_5
f_7_6_7
f_7_6_9
f_7_8_3
f_7_8_5
f_7_8_7
f_7_8_9
f_7_9_3
f_7_9_5
f_7_9_7
f_7_9_9
f_8_10_3
f_8_10_5
f_8_10_7
f_8_10_9
f_8_1_3
f_8_1_5
f_8_1_7
f_8_1_9
f_8_2_3
f_8_2_5
f_8_2_7
f_8_2_9
f_8_3_3
f_8_3_5
f_8_3_7
f_8_3_9
f_8_4_3
f_8_4_5
f_8_4_7
f_8_4_9
f_8_5_3
f_8_5_5
f_8_5_7
f_8_5_9
f_8_6_3
f_8_6_5
f_8_6_7
f_8_6_9
f_8_7_3
f_8_7_5
f_8_7_7
f_8_7_9
f_8_9_3
f_8_9_5
f_8_9_7
f_8_9_9
f_9_10_3
f_9_10_5
f_9_10_7
f_9_10_9
f_9_1_3
f_9_1_5
f_9_1_7
f_9_1_9
f_9_2_3
f_9_2_5
f_9_2_7
f_9_2_9
f_9_3_3
f_9_3_5
f_9_3_7
f_9_3_9
f_9_4_3
f_9_4_5
f_9_4_7
f_9_4_9
f_9_5_3
f_9_5_5
f_9_5_7
f_9_5_9
f_9_6_3
f_9_6_5
f_9_6_7
f_9_6_9
f_9_7_3
f_9_7_5
f_9_7_7
f_9_7_9
f_9_8_3
f_9_8_5
f_9_8_7
f_9_8_9
v_1
v_10
v_2
v_3
v_4
v_5
v_6
v_7
v_8
v_9
x_10_1
x_10_2
x_10_3
x_10_4
x_10_5
x_10_6
x_10_7
x_10_8
x_10_9
x_1_10
x_1_2
x_1_3
x_1_4
x_1_5
x_1_6
x_1_7
x_1_8
x_1_9
x_2_1
x_2_10
x_2_3
x_2_4
x_2_5
x_2_6
x_2_7
x_2_8
x_2_9
x_3_1
x_3_10
x_3_2
x_3_4
x_3_5
x_3_6
x_3_7
x_3_8
x_3_9
x_4_1
x_4_10
x_4_2
x_4_3
x_4_5
x_4_6
x_4_7
x_4_8
x_4_9
x_5_1
x_5_10
x_5_2
x_5_3
x_5_4
x_5_6
x_5_7
x_5_8
x_5_9
x_6_1
x_6_10
x_6_2
x_6_3
x_6_4
x_6_5
x_6_7
x_6_8
x_6_9
x_7_1
x_7_10
x_7_2
x_7_3
x_7_4
x_7_5
x_7_6
x_7_8
x_7_9
x_8_1
x_8_10
x_8_2
x_8_3
x_8_4
x_8_5
x_8_6
x_8_7
x_8_9
x_9_1
x_9_10
x_9_2
x_9_3
x_9_4
x_9_5
x_9_6
x_9_7
x_9_8
End
